\ENCODING=ISO-8859-1
\Problem name: nSARP

Maximize
 obj: 8.675 x(0,1,0) + 8.675 x(0,1,1) + 8.565 x(0,2,0) + 8.565 x(0,2,1)
      + 8.498 x(0,3,0) + 8.498 x(0,3,1) + 9.183 x(0,4,0) + 9.183 x(0,4,1)
      + 9.18 x(0,5,0) + 9.18 x(0,5,1) + 8.989 x(0,6,0) + 8.989 x(0,6,1)
      + 9.446 x(0,7,0) + 9.446 x(0,7,1) + 9.721 x(0,10,0) + 9.721 x(0,10,1)
      + 7.159 x(1,0,0) + 7.159 x(1,0,1) + 7.703 x(1,2,0) + 7.703 x(1,2,1)
      + 7.155 x(1,3,0) + 7.155 x(1,3,1) + 7.603 x(1,4,0) + 7.603 x(1,4,1)
      + 7.441 x(1,5,0) + 7.441 x(1,5,1) + 7.292 x(1,6,0) + 7.292 x(1,6,1)
      + 7.379 x(1,7,0) + 7.379 x(1,7,1) + 8.554 x(1,10,0) + 8.554 x(1,10,1)
      + 7.879 x(2,0,0) + 7.879 x(2,0,1) + 7.939 x(2,1,0) + 7.939 x(2,1,1)
      + 8.077 x(2,3,0) + 8.077 x(2,3,1) + 7.464 x(2,4,0) + 7.464 x(2,4,1)
      + 7.522 x(2,5,0) + 7.522 x(2,5,1) + 7.728 x(2,6,0) + 7.728 x(2,6,1)
      + 7.329 x(2,7,0) + 7.329 x(2,7,1) + 8.587 x(2,10,0) + 8.587 x(2,10,1)
      + 6.857 x(3,0,0) + 6.857 x(3,0,1) + 6.402 x(3,1,0) + 6.402 x(3,1,1)
      + 6.786 x(3,2,0) + 6.786 x(3,2,1) + 6.27 x(3,4,0) + 6.27 x(3,4,1)
      + 6.374 x(3,5,0) + 6.374 x(3,5,1) + 6.699 x(3,6,0) + 6.699 x(3,6,1)
      + 6.256 x(3,7,0) + 6.256 x(3,7,1) + 7.726 x(3,10,0) + 7.726 x(3,10,1)
      + 7.546 x(4,0,0) + 7.546 x(4,0,1) + 7.918 x(4,1,0) + 7.918 x(4,1,1)
      + 7.917 x(4,2,0) + 7.917 x(4,2,1) + 7.248 x(4,3,0) + 7.248 x(4,3,1)
      + 7.792 x(4,5,0) + 7.792 x(4,5,1) + 7.685 x(4,6,0) + 7.685 x(4,6,1)
      + 7.592 x(4,7,0) + 7.592 x(4,7,1) + 8.422 x(4,10,0) + 8.422 x(4,10,1)
      + 7.563 x(5,0,0) + 7.563 x(5,0,1) + 7.062 x(5,1,0) + 7.062 x(5,1,1)
      + 7.242 x(5,2,0) + 7.242 x(5,2,1) + 7.007 x(5,3,0) + 7.007 x(5,3,1)
      + 7.522 x(5,4,0) + 7.522 x(5,4,1) + 7.483 x(5,6,0) + 7.483 x(5,6,1)
      + 7.846 x(5,7,0) + 7.846 x(5,7,1) + 8.074 x(5,10,0) + 8.074 x(5,10,1)
      + 8.584 x(6,0,0) + 8.584 x(6,0,1) + 8.093 x(6,1,0) + 8.093 x(6,1,1)
      + 8.407 x(6,2,0) + 8.407 x(6,2,1) + 8.778 x(6,3,0) + 8.778 x(6,3,1)
      + 7.946 x(6,4,0) + 7.946 x(6,4,1) + 8.159 x(6,5,0) + 8.159 x(6,5,1)
      + 7.936 x(6,7,0) + 7.936 x(6,7,1) + 9.073 x(6,10,0) + 9.073 x(6,10,1)
      + 8.898 x(7,0,0) + 8.898 x(7,0,1) + 8.1 x(7,1,0) + 8.1 x(7,1,1)
      + 8.392 x(7,2,0) + 8.392 x(7,2,1) + 8.651 x(7,3,0) + 8.651 x(7,3,1)
      + 8.313 x(7,4,0) + 8.313 x(7,4,1) + 8.503 x(7,5,0) + 8.503 x(7,5,1)
      + 8.848 x(7,6,0) + 8.848 x(7,6,1) + 9.469 x(7,10,0) + 9.469 x(7,10,1)
      - 0.668 x(8,0,0) - 0.668 x(8,0,1) - 1.371 x(8,1,0) - 1.371 x(8,1,1)
      - 1.024 x(8,2,0) - 1.024 x(8,2,1) - 0.382 x(8,3,0) - 0.382 x(8,3,1)
      - 1.415 x(8,4,0) - 1.415 x(8,4,1) - 1.249 x(8,5,0) - 1.249 x(8,5,1)
      - 0.714 x(8,6,0) - 0.714 x(8,6,1) - 1.208 x(8,7,0) - 1.208 x(8,7,1)
      - 0.668 x(9,0,0) - 0.668 x(9,0,1) - 1.371 x(9,1,0) - 1.371 x(9,1,1)
      - 1.024 x(9,2,0) - 1.024 x(9,2,1) - 0.382 x(9,3,0) - 0.382 x(9,3,1)
      - 1.415 x(9,4,0) - 1.415 x(9,4,1) - 1.249 x(9,5,0) - 1.249 x(9,5,1)
      - 0.714 x(9,6,0) - 0.714 x(9,6,1) - 1.208 x(9,7,0) - 1.208 x(9,7,1)
      + 0 y(10,0) + 0 y(10,1) + 0 w(10) + id1603
Subject To
 Constraint1_0:    x(0,1,0) + x(0,1,1) + x(0,2,0) + x(0,2,1) + x(0,3,0)
                   + x(0,3,1) + x(0,4,0) + x(0,4,1) + x(0,5,0) + x(0,5,1)
                   + x(0,6,0) + x(0,6,1) + x(0,7,0) + x(0,7,1) + x(0,10,0)
                   + x(0,10,1)  = 1
 Constraint1_1:    x(1,0,0) + x(1,0,1) + x(1,2,0) + x(1,2,1) + x(1,3,0)
                   + x(1,3,1) + x(1,4,0) + x(1,4,1) + x(1,5,0) + x(1,5,1)
                   + x(1,6,0) + x(1,6,1) + x(1,7,0) + x(1,7,1) + x(1,10,0)
                   + x(1,10,1)  = 1
 Constraint1_2:    x(2,0,0) + x(2,0,1) + x(2,1,0) + x(2,1,1) + x(2,3,0)
                   + x(2,3,1) + x(2,4,0) + x(2,4,1) + x(2,5,0) + x(2,5,1)
                   + x(2,6,0) + x(2,6,1) + x(2,7,0) + x(2,7,1) + x(2,10,0)
                   + x(2,10,1)  = 1
 Constraint1_3:    x(3,0,0) + x(3,0,1) + x(3,1,0) + x(3,1,1) + x(3,2,0)
                   + x(3,2,1) + x(3,4,0) + x(3,4,1) + x(3,5,0) + x(3,5,1)
                   + x(3,6,0) + x(3,6,1) + x(3,7,0) + x(3,7,1) + x(3,10,0)
                   + x(3,10,1)  = 1
 Constraint1_4:    x(4,0,0) + x(4,0,1) + x(4,1,0) + x(4,1,1) + x(4,2,0)
                   + x(4,2,1) + x(4,3,0) + x(4,3,1) + x(4,5,0) + x(4,5,1)
                   + x(4,6,0) + x(4,6,1) + x(4,7,0) + x(4,7,1) + x(4,10,0)
                   + x(4,10,1)  = 1
 Constraint1_5:    x(5,0,0) + x(5,0,1) + x(5,1,0) + x(5,1,1) + x(5,2,0)
                   + x(5,2,1) + x(5,3,0) + x(5,3,1) + x(5,4,0) + x(5,4,1)
                   + x(5,6,0) + x(5,6,1) + x(5,7,0) + x(5,7,1) + x(5,10,0)
                   + x(5,10,1)  = 1
 Constraint1_6:    x(6,0,0) + x(6,0,1) + x(6,1,0) + x(6,1,1) + x(6,2,0)
                   + x(6,2,1) + x(6,3,0) + x(6,3,1) + x(6,4,0) + x(6,4,1)
                   + x(6,5,0) + x(6,5,1) + x(6,7,0) + x(6,7,1) + x(6,10,0)
                   + x(6,10,1)  = 1
 Constraint1_7:    x(7,0,0) + x(7,0,1) + x(7,1,0) + x(7,1,1) + x(7,2,0)
                   + x(7,2,1) + x(7,3,0) + x(7,3,1) + x(7,4,0) + x(7,4,1)
                   + x(7,5,0) + x(7,5,1) + x(7,6,0) + x(7,6,1) + x(7,10,0)
                   + x(7,10,1)  = 1
 Constraint4_0_0:  x(0,1,0) + x(0,2,0) + x(0,3,0) + x(0,4,0) + x(0,5,0)
                   + x(0,6,0) + x(0,7,0) + x(0,10,0) - x(1,0,0) - x(2,0,0)
                   - x(3,0,0) - x(4,0,0) - x(5,0,0) - x(6,0,0) - x(7,0,0)
                   - x(8,0,0) - x(9,0,0)  = 0
 Constraint4_0_1:  x(0,1,1) + x(0,2,1) + x(0,3,1) + x(0,4,1) + x(0,5,1)
                   + x(0,6,1) + x(0,7,1) + x(0,10,1) - x(1,0,1) - x(2,0,1)
                   - x(3,0,1) - x(4,0,1) - x(5,0,1) - x(6,0,1) - x(7,0,1)
                   - x(8,0,1) - x(9,0,1)  = 0
 Constraint4_1_0:  - x(0,1,0) + x(1,0,0) + x(1,2,0) + x(1,3,0) + x(1,4,0)
                   + x(1,5,0) + x(1,6,0) + x(1,7,0) + x(1,10,0) - x(2,1,0)
                   - x(3,1,0) - x(4,1,0) - x(5,1,0) - x(6,1,0) - x(7,1,0)
                   - x(8,1,0) - x(9,1,0)  = 0
 Constraint4_1_1:  - x(0,1,1) + x(1,0,1) + x(1,2,1) + x(1,3,1) + x(1,4,1)
                   + x(1,5,1) + x(1,6,1) + x(1,7,1) + x(1,10,1) - x(2,1,1)
                   - x(3,1,1) - x(4,1,1) - x(5,1,1) - x(6,1,1) - x(7,1,1)
                   - x(8,1,1) - x(9,1,1)  = 0
 Constraint4_2_0:  - x(0,2,0) - x(1,2,0) + x(2,0,0) + x(2,1,0) + x(2,3,0)
                   + x(2,4,0) + x(2,5,0) + x(2,6,0) + x(2,7,0) + x(2,10,0)
                   - x(3,2,0) - x(4,2,0) - x(5,2,0) - x(6,2,0) - x(7,2,0)
                   - x(8,2,0) - x(9,2,0)  = 0
 Constraint4_2_1:  - x(0,2,1) - x(1,2,1) + x(2,0,1) + x(2,1,1) + x(2,3,1)
                   + x(2,4,1) + x(2,5,1) + x(2,6,1) + x(2,7,1) + x(2,10,1)
                   - x(3,2,1) - x(4,2,1) - x(5,2,1) - x(6,2,1) - x(7,2,1)
                   - x(8,2,1) - x(9,2,1)  = 0
 Constraint4_3_0:  - x(0,3,0) - x(1,3,0) - x(2,3,0) + x(3,0,0) + x(3,1,0)
                   + x(3,2,0) + x(3,4,0) + x(3,5,0) + x(3,6,0) + x(3,7,0)
                   + x(3,10,0) - x(4,3,0) - x(5,3,0) - x(6,3,0) - x(7,3,0)
                   - x(8,3,0) - x(9,3,0)  = 0
 Constraint4_3_1:  - x(0,3,1) - x(1,3,1) - x(2,3,1) + x(3,0,1) + x(3,1,1)
                   + x(3,2,1) + x(3,4,1) + x(3,5,1) + x(3,6,1) + x(3,7,1)
                   + x(3,10,1) - x(4,3,1) - x(5,3,1) - x(6,3,1) - x(7,3,1)
                   - x(8,3,1) - x(9,3,1)  = 0
 Constraint4_4_0:  - x(0,4,0) - x(1,4,0) - x(2,4,0) - x(3,4,0) + x(4,0,0)
                   + x(4,1,0) + x(4,2,0) + x(4,3,0) + x(4,5,0) + x(4,6,0)
                   + x(4,7,0) + x(4,10,0) - x(5,4,0) - x(6,4,0) - x(7,4,0)
                   - x(8,4,0) - x(9,4,0)  = 0
 Constraint4_4_1:  - x(0,4,1) - x(1,4,1) - x(2,4,1) - x(3,4,1) + x(4,0,1)
                   + x(4,1,1) + x(4,2,1) + x(4,3,1) + x(4,5,1) + x(4,6,1)
                   + x(4,7,1) + x(4,10,1) - x(5,4,1) - x(6,4,1) - x(7,4,1)
                   - x(8,4,1) - x(9,4,1)  = 0
 Constraint4_5_0:  - x(0,5,0) - x(1,5,0) - x(2,5,0) - x(3,5,0) - x(4,5,0)
                   + x(5,0,0) + x(5,1,0) + x(5,2,0) + x(5,3,0) + x(5,4,0)
                   + x(5,6,0) + x(5,7,0) + x(5,10,0) - x(6,5,0) - x(7,5,0)
                   - x(8,5,0) - x(9,5,0)  = 0
 Constraint4_5_1:  - x(0,5,1) - x(1,5,1) - x(2,5,1) - x(3,5,1) - x(4,5,1)
                   + x(5,0,1) + x(5,1,1) + x(5,2,1) + x(5,3,1) + x(5,4,1)
                   + x(5,6,1) + x(5,7,1) + x(5,10,1) - x(6,5,1) - x(7,5,1)
                   - x(8,5,1) - x(9,5,1)  = 0
 Constraint4_6_0:  - x(0,6,0) - x(1,6,0) - x(2,6,0) - x(3,6,0) - x(4,6,0)
                   - x(5,6,0) + x(6,0,0) + x(6,1,0) + x(6,2,0) + x(6,3,0)
                   + x(6,4,0) + x(6,5,0) + x(6,7,0) + x(6,10,0) - x(7,6,0)
                   - x(8,6,0) - x(9,6,0)  = 0
 Constraint4_6_1:  - x(0,6,1) - x(1,6,1) - x(2,6,1) - x(3,6,1) - x(4,6,1)
                   - x(5,6,1) + x(6,0,1) + x(6,1,1) + x(6,2,1) + x(6,3,1)
                   + x(6,4,1) + x(6,5,1) + x(6,7,1) + x(6,10,1) - x(7,6,1)
                   - x(8,6,1) - x(9,6,1)  = 0
 Constraint4_7_0:  - x(0,7,0) - x(1,7,0) - x(2,7,0) - x(3,7,0) - x(4,7,0)
                   - x(5,7,0) - x(6,7,0) + x(7,0,0) + x(7,1,0) + x(7,2,0)
                   + x(7,3,0) + x(7,4,0) + x(7,5,0) + x(7,6,0) + x(7,10,0)
                   - x(8,7,0) - x(9,7,0)  = 0
 Constraint4_7_1:  - x(0,7,1) - x(1,7,1) - x(2,7,1) - x(3,7,1) - x(4,7,1)
                   - x(5,7,1) - x(6,7,1) + x(7,0,1) + x(7,1,1) + x(7,2,1)
                   + x(7,3,1) + x(7,4,1) + x(7,5,1) + x(7,6,1) + x(7,10,1)
                   - x(8,7,1) - x(9,7,1)  = 0
 Constraint5_0:    x(8,0,0) + x(8,1,0) + x(8,2,0) + x(8,3,0) + x(8,4,0)
                   + x(8,5,0) + x(8,6,0) + x(8,7,0)  = 1
 Constraint5_1:    x(9,0,1) + x(9,1,1) + x(9,2,1) + x(9,3,1) + x(9,4,1)
                   + x(9,5,1) + x(9,6,1) + x(9,7,1)  = 1
 Constraint6_0:    x(0,10,0) + x(1,10,0) + x(2,10,0) + x(3,10,0) + x(4,10,0)
                   + x(5,10,0) + x(6,10,0) + x(7,10,0)  = 1
 Constraint6_1:    x(0,10,1) + x(1,10,1) + x(2,10,1) + x(3,10,1) + x(4,10,1)
                   + x(5,10,1) + x(6,10,1) + x(7,10,1)  = 1
 Constraint7_0_0:  - 48 y(0,0) + b(0) <= 0
 Constraint7_0_1:  - 48 y(0,1) + b(0) <= 0
 Constraint7_1_0:  - 48 y(1,0) + b(1) <= 0
 Constraint7_1_1:  - 48 y(1,1) + b(1) <= 0
 Constraint7_2_0:  - 48 y(2,0) + b(2) <= 0
 Constraint7_2_1:  - 48 y(2,1) + b(2) <= 0
 Constraint7_3_0:  - 48 y(3,0) + b(3) <= 0
 Constraint7_3_1:  - 48 y(3,1) + b(3) <= 0
 Constraint7_4_0:  - 48 y(4,0) + b(4) <= 0
 Constraint7_4_1:  - 48 y(4,1) + b(4) <= 0
 Constraint7_5_0:  - 48 y(5,0) + b(5) <= 0
 Constraint7_5_1:  - 48 y(5,1) + b(5) <= 0
 Constraint7_6_0:  - 48 y(6,0) + b(6) <= 0
 Constraint7_6_1:  - 48 y(6,1) + b(6) <= 0
 Constraint7_7_0:  - 48 y(7,0) + b(7) <= 0
 Constraint7_7_1:  - 48 y(7,1) + b(7) <= 0
 Constraint7_8_0:  - 48 y(8,0) + b(8) <= 0
 Constraint7_8_1:  - 48 y(8,1) + b(8) <= 0
 Constraint7_9_0:  - 48 y(9,0) + b(9) <= 0
 Constraint7_9_1:  - 48 y(9,1) + b(9) <= 0
 Constraint9_0_1:  48 x(0,1,0) + 48 x(0,1,1) + b(0) - b(1) <= 47.7321416234888
 Constraint9_0_2:  48 x(0,2,0) + 48 x(0,2,1) + b(0) - b(2) <= 47.7264421416235
 Constraint9_0_3:  48 x(0,3,0) + 48 x(0,3,1) + b(0) - b(3) <= 47.7229706390328
 Constraint9_0_4:  48 x(0,4,0) + 48 x(0,4,1) + b(0) - b(4) <= 47.7584628670121
 Constraint9_0_5:  48 x(0,5,0) + 48 x(0,5,1) + b(0) - b(5) <= 47.7583074265976
 Constraint9_0_6:  48 x(0,6,0) + 48 x(0,6,1) + b(0) - b(6) <= 47.7484110535406
 Constraint9_0_7:  48 x(0,7,0) + 48 x(0,7,1) + b(0) - b(7) <= 47.7720898100173
 Constraint9_0_10: 48 x(0,10,0) + 48 x(0,10,1) + b(0) - b(10)
                   <= 47.7863385146805
 Constraint9_1_0:  48 x(1,0,0) + 48 x(1,0,1) - b(0) + b(1) <= 47.7342141623489
 Constraint9_1_2:  48 x(1,2,0) + 48 x(1,2,1) + b(1) - b(2) <= 47.7624006908463
 Constraint9_1_3:  48 x(1,3,0) + 48 x(1,3,1) + b(1) - b(3) <= 47.7340069084629
 Constraint9_1_4:  48 x(1,4,0) + 48 x(1,4,1) + b(1) - b(4) <= 47.757219343696
 Constraint9_1_5:  48 x(1,5,0) + 48 x(1,5,1) + b(1) - b(5) <= 47.7488255613126
 Constraint9_1_6:  48 x(1,6,0) + 48 x(1,6,1) + b(1) - b(6) <= 47.7411053540587
 Constraint9_1_7:  48 x(1,7,0) + 48 x(1,7,1) + b(1) - b(7) <= 47.7456131260794
 Constraint9_1_10: 48 x(1,10,0) + 48 x(1,10,1) + b(1) - b(10)
                   <= 47.806493955095
 Constraint9_2_0:  48 x(2,0,0) + 48 x(2,0,1) - b(0) + b(2) <= 47.7692400690846
 Constraint9_2_1:  48 x(2,1,0) + 48 x(2,1,1) - b(1) + b(2) <= 47.7723488773748
 Constraint9_2_3:  48 x(2,3,0) + 48 x(2,3,1) + b(2) - b(3) <= 47.7794991364421
 Constraint9_2_4:  48 x(2,4,0) + 48 x(2,4,1) + b(2) - b(4) <= 47.7477374784111
 Constraint9_2_5:  48 x(2,5,0) + 48 x(2,5,1) + b(2) - b(5) <= 47.7507426597582
 Constraint9_2_6:  48 x(2,6,0) + 48 x(2,6,1) + b(2) - b(6) <= 47.7614162348877
 Constraint9_2_7:  48 x(2,7,0) + 48 x(2,7,1) + b(2) - b(7) <= 47.7407426597582
 Constraint9_2_10: 48 x(2,10,0) + 48 x(2,10,1) + b(2) - b(10)
                   <= 47.8059240069085
 Constraint9_3_0:  48 x(3,0,0) + 48 x(3,0,1) - b(0) + b(3) <= 47.775768566494
 Constraint9_3_1:  48 x(3,1,0) + 48 x(3,1,1) - b(1) + b(3) <= 47.7521934369603
 Constraint9_3_2:  48 x(3,2,0) + 48 x(3,2,1) - b(2) + b(3) <= 47.7720898100173
 Constraint9_3_4:  48 x(3,4,0) + 48 x(3,4,1) + b(3) - b(4) <= 47.7453540587219
 Constraint9_3_5:  48 x(3,5,0) + 48 x(3,5,1) + b(3) - b(5) <= 47.7507426597582
 Constraint9_3_6:  48 x(3,6,0) + 48 x(3,6,1) + b(3) - b(6) <= 47.7675820379965
 Constraint9_3_7:  48 x(3,7,0) + 48 x(3,7,1) + b(3) - b(7) <= 47.7446286701209
 Constraint9_3_10: 48 x(3,10,0) + 48 x(3,10,1) + b(3) - b(10)
                   <= 47.8207944732297
 Constraint9_4_0:  48 x(4,0,0) + 48 x(4,0,1) - b(0) + b(4) <= 47.7633851468048
 Constraint9_4_1:  48 x(4,1,0) + 48 x(4,1,1) - b(1) + b(4) <= 47.7826597582038
 Constraint9_4_2:  48 x(4,2,0) + 48 x(4,2,1) - b(2) + b(4) <= 47.7826079447323
 Constraint9_4_3:  48 x(4,3,0) + 48 x(4,3,1) - b(3) + b(4) <= 47.7479447322971
 Constraint9_4_5:  48 x(4,5,0) + 48 x(4,5,1) + b(4) - b(5) <= 47.7761312607945
 Constraint9_4_6:  48 x(4,6,0) + 48 x(4,6,1) + b(4) - b(6) <= 47.7705872193437
 Constraint9_4_7:  48 x(4,7,0) + 48 x(4,7,1) + b(4) - b(7) <= 47.765768566494
 Constraint9_4_10: 48 x(4,10,0) + 48 x(4,10,1) + b(4) - b(10)
                   <= 47.8087737478411
 Constraint9_5_0:  48 x(5,0,0) + 48 x(5,0,1) - b(0) + b(5) <= 47.7883074265976
 Constraint9_5_1:  48 x(5,1,0) + 48 x(5,1,1) - b(1) + b(5) <= 47.7623488773748
 Constraint9_5_2:  48 x(5,2,0) + 48 x(5,2,1) - b(2) + b(5) <= 47.7716753022452
 Constraint9_5_3:  48 x(5,3,0) + 48 x(5,3,1) - b(3) + b(5) <= 47.7594991364421
 Constraint9_5_4:  48 x(5,4,0) + 48 x(5,4,1) - b(4) + b(5) <= 47.786183074266
 Constraint9_5_6:  48 x(5,6,0) + 48 x(5,6,1) + b(5) - b(6) <= 47.7841623488774
 Constraint9_5_7:  48 x(5,7,0) + 48 x(5,7,1) + b(5) - b(7) <= 47.8029706390328
 Constraint9_5_10: 48 x(5,10,0) + 48 x(5,10,1) + b(5) - b(10)
                   <= 47.8147841105354
 Constraint9_6_0:  48 x(6,0,0) + 48 x(6,0,1) - b(0) + b(6) <= 47.7721934369603
 Constraint9_6_1:  48 x(6,1,0) + 48 x(6,1,1) - b(1) + b(6) <= 47.7467530224525
 Constraint9_6_2:  48 x(6,2,0) + 48 x(6,2,1) - b(2) + b(6) <= 47.7630224525043
 Constraint9_6_3:  48 x(6,3,0) + 48 x(6,3,1) - b(3) + b(6) <= 47.7822452504318
 Constraint9_6_4:  48 x(6,4,0) + 48 x(6,4,1) - b(4) + b(6) <= 47.7391364421416
 Constraint9_6_5:  48 x(6,5,0) + 48 x(6,5,1) - b(5) + b(6) <= 47.7501727115717
 Constraint9_6_7:  48 x(6,7,0) + 48 x(6,7,1) + b(6) - b(7) <= 47.7386183074266
 Constraint9_6_10: 48 x(6,10,0) + 48 x(6,10,1) + b(6) - b(10)
                   <= 47.797530224525
 Constraint9_7_0:  48 x(7,0,0) + 48 x(7,0,1) - b(0) + b(7) <= 47.7611053540587
 Constraint9_7_1:  48 x(7,1,0) + 48 x(7,1,1) - b(1) + b(7) <= 47.7197582037997
 Constraint9_7_2:  48 x(7,2,0) + 48 x(7,2,1) - b(2) + b(7) <= 47.7348877374784
 Constraint9_7_3:  48 x(7,3,0) + 48 x(7,3,1) - b(3) + b(7) <= 47.7483074265976
 Constraint9_7_4:  48 x(7,4,0) + 48 x(7,4,1) - b(4) + b(7) <= 47.7307944732297
 Constraint9_7_5:  48 x(7,5,0) + 48 x(7,5,1) - b(5) + b(7) <= 47.7406390328152
 Constraint9_7_6:  48 x(7,6,0) + 48 x(7,6,1) - b(6) + b(7) <= 47.7585146804836
 Constraint9_7_10: 48 x(7,10,0) + 48 x(7,10,1) + b(7) - b(10)
                   <= 47.7906908462867
 Constraint9_8_0:  48 x(8,0,0) + 48 x(8,0,1) - b(0) + b(8) <= 47.9653886010363
 Constraint9_8_1:  48 x(8,1,0) + 48 x(8,1,1) - b(1) + b(8) <= 47.9289637305699
 Constraint9_8_2:  48 x(8,2,0) + 48 x(8,2,1) - b(2) + b(8) <= 47.9469430051813
 Constraint9_8_3:  48 x(8,3,0) + 48 x(8,3,1) - b(3) + b(8) <= 47.980207253886
 Constraint9_8_4:  48 x(8,4,0) + 48 x(8,4,1) - b(4) + b(8) <= 47.9266839378238
 Constraint9_8_5:  48 x(8,5,0) + 48 x(8,5,1) - b(5) + b(8) <= 47.9352849740933
 Constraint9_8_6:  48 x(8,6,0) + 48 x(8,6,1) - b(6) + b(8) <= 47.9630051813471
 Constraint9_8_7:  48 x(8,7,0) + 48 x(8,7,1) - b(7) + b(8) <= 47.9374093264249
 Constraint9_9_0:  48 x(9,0,0) + 48 x(9,0,1) - b(0) + b(9) <= 47.9653886010363
 Constraint9_9_1:  48 x(9,1,0) + 48 x(9,1,1) - b(1) + b(9) <= 47.9289637305699
 Constraint9_9_2:  48 x(9,2,0) + 48 x(9,2,1) - b(2) + b(9) <= 47.9469430051813
 Constraint9_9_3:  48 x(9,3,0) + 48 x(9,3,1) - b(3) + b(9) <= 47.980207253886
 Constraint9_9_4:  48 x(9,4,0) + 48 x(9,4,1) - b(4) + b(9) <= 47.9266839378238
 Constraint9_9_5:  48 x(9,5,0) + 48 x(9,5,1) - b(5) + b(9) <= 47.9352849740933
 Constraint9_9_6:  48 x(9,6,0) + 48 x(9,6,1) - b(6) + b(9) <= 47.9630051813471
 Constraint9_9_7:  48 x(9,7,0) + 48 x(9,7,1) - b(7) + b(9) <= 47.9374093264249
 Constraint10_0:   x(0,1,0) + x(0,1,1) + w(0) - w(1) <= 1
 Constraint10_1:   x(0,2,0) + x(0,2,1) + w(0) - w(2) <= 1
 Constraint10_2:   x(0,3,0) + x(0,3,1) + w(0) - w(3) <= 1
 Constraint10_3:   x(0,4,0) + x(0,4,1) + w(0) - w(4) <= 1
 Constraint10_4:   x(0,5,0) + x(0,5,1) + w(0) - w(5) <= 1
 Constraint10_5:   x(0,6,0) + x(0,6,1) + w(0) - w(6) <= 1
 Constraint10_6:   x(0,7,0) + x(0,7,1) + w(0) - w(7) <= 1
 Constraint10_7:   x(1,0,0) + x(1,0,1) - w(0) + w(1) <= 1
 Constraint10_8:   x(1,2,0) + x(1,2,1) + w(1) - w(2) <= 1
 Constraint10_9:   x(1,3,0) + x(1,3,1) + w(1) - w(3) <= 1
 Constraint10_10:  x(1,4,0) + x(1,4,1) + w(1) - w(4) <= 1
 Constraint10_11:  x(1,5,0) + x(1,5,1) + w(1) - w(5) <= 1
 Constraint10_12:  x(1,6,0) + x(1,6,1) + w(1) - w(6) <= 1
 Constraint10_13:  x(1,7,0) + x(1,7,1) + w(1) - w(7) <= 1
 Constraint10_14:  x(2,0,0) + x(2,0,1) - w(0) + w(2) <= 1
 Constraint10_15:  x(2,1,0) + x(2,1,1) - w(1) + w(2) <= 1
 Constraint10_16:  x(2,3,0) + x(2,3,1) + w(2) - w(3) <= 1
 Constraint10_17:  x(2,4,0) + x(2,4,1) + w(2) - w(4) <= 1
 Constraint10_18:  x(2,5,0) + x(2,5,1) + w(2) - w(5) <= 1
 Constraint10_19:  x(2,6,0) + x(2,6,1) + w(2) - w(6) <= 1
 Constraint10_20:  x(2,7,0) + x(2,7,1) + w(2) - w(7) <= 1
 Constraint10_21:  x(3,0,0) + x(3,0,1) - w(0) + w(3) <= 1
 Constraint10_22:  x(3,1,0) + x(3,1,1) - w(1) + w(3) <= 1
 Constraint10_23:  x(3,2,0) + x(3,2,1) - w(2) + w(3) <= 1
 Constraint10_24:  x(3,4,0) + x(3,4,1) + w(3) - w(4) <= 1
 Constraint10_25:  x(3,5,0) + x(3,5,1) + w(3) - w(5) <= 1
 Constraint10_26:  x(3,6,0) + x(3,6,1) + w(3) - w(6) <= 1
 Constraint10_27:  x(3,7,0) + x(3,7,1) + w(3) - w(7) <= 1
 Constraint10_28:  x(4,0,0) + x(4,0,1) - w(0) + w(4) <= 1
 Constraint10_29:  x(4,1,0) + x(4,1,1) - w(1) + w(4) <= 1
 Constraint10_30:  x(4,2,0) + x(4,2,1) - w(2) + w(4) <= 1
 Constraint10_31:  x(4,3,0) + x(4,3,1) - w(3) + w(4) <= 1
 Constraint10_32:  x(4,5,0) + x(4,5,1) + w(4) - w(5) <= 1
 Constraint10_33:  x(4,6,0) + x(4,6,1) + w(4) - w(6) <= 1
 Constraint10_34:  x(4,7,0) + x(4,7,1) + w(4) - w(7) <= 1
 Constraint10_35:  x(5,0,0) + x(5,0,1) - w(0) + w(5) <= 1
 Constraint10_36:  x(5,1,0) + x(5,1,1) - w(1) + w(5) <= 1
 Constraint10_37:  x(5,2,0) + x(5,2,1) - w(2) + w(5) <= 1
 Constraint10_38:  x(5,3,0) + x(5,3,1) - w(3) + w(5) <= 1
 Constraint10_39:  x(5,4,0) + x(5,4,1) - w(4) + w(5) <= 1
 Constraint10_40:  x(5,6,0) + x(5,6,1) + w(5) - w(6) <= 1
 Constraint10_41:  x(5,7,0) + x(5,7,1) + w(5) - w(7) <= 1
 Constraint10_42:  x(6,0,0) + x(6,0,1) - w(0) + w(6) <= 1
 Constraint10_43:  x(6,1,0) + x(6,1,1) - w(1) + w(6) <= 1
 Constraint10_44:  x(6,2,0) + x(6,2,1) - w(2) + w(6) <= 1
 Constraint10_45:  x(6,3,0) + x(6,3,1) - w(3) + w(6) <= 1
 Constraint10_46:  x(6,4,0) + x(6,4,1) - w(4) + w(6) <= 1
 Constraint10_47:  x(6,5,0) + x(6,5,1) - w(5) + w(6) <= 1
 Constraint10_48:  x(6,7,0) + x(6,7,1) + w(6) - w(7) <= 1
 Constraint10_49:  x(7,0,0) + x(7,0,1) - w(0) + w(7) <= 1
 Constraint10_50:  x(7,1,0) + x(7,1,1) - w(1) + w(7) <= 1
 Constraint10_51:  x(7,2,0) + x(7,2,1) - w(2) + w(7) <= 1
 Constraint10_52:  x(7,3,0) + x(7,3,1) - w(3) + w(7) <= 1
 Constraint10_53:  x(7,4,0) + x(7,4,1) - w(4) + w(7) <= 1
 Constraint10_54:  x(7,5,0) + x(7,5,1) - w(5) + w(7) <= 1
 Constraint10_55:  x(7,6,0) + x(7,6,1) - w(6) + w(7) <= 1
 Constraint10_56:  x(8,0,0) + x(8,0,1) - w(0) + w(8) <= 1
 Constraint10_57:  x(8,1,0) + x(8,1,1) - w(1) + w(8) <= 1
 Constraint10_58:  x(8,2,0) + x(8,2,1) - w(2) + w(8) <= 1
 Constraint10_59:  x(8,3,0) + x(8,3,1) - w(3) + w(8) <= 1
 Constraint10_60:  x(8,4,0) + x(8,4,1) - w(4) + w(8) <= 1
 Constraint10_61:  x(8,5,0) + x(8,5,1) - w(5) + w(8) <= 1
 Constraint10_62:  x(8,6,0) + x(8,6,1) - w(6) + w(8) <= 1
 Constraint10_63:  x(8,7,0) + x(8,7,1) - w(7) + w(8) <= 1
 Constraint10_64:  x(9,0,0) + x(9,0,1) - w(0) + w(9) <= 1
 Constraint10_65:  x(9,1,0) + x(9,1,1) - w(1) + w(9) <= 1
 Constraint10_66:  x(9,2,0) + x(9,2,1) - w(2) + w(9) <= 1
 Constraint10_67:  x(9,3,0) + x(9,3,1) - w(3) + w(9) <= 1
 Constraint10_68:  x(9,4,0) + x(9,4,1) - w(4) + w(9) <= 1
 Constraint10_69:  x(9,5,0) + x(9,5,1) - w(5) + w(9) <= 1
 Constraint10_70:  x(9,6,0) + x(9,6,1) - w(6) + w(9) <= 1
 Constraint10_71:  x(9,7,0) + x(9,7,1) - w(7) + w(9) <= 1
 Constraint11_0_0: b(0) <= 11.9
 Constraint12_0_0: b(0) >= 11.9
 Constraint11_0_1: b(0) <= 11.9
 Constraint12_0_1: b(0) >= 11.9
 Constraint11_1_0: b(1) <= 15.9833333333333
 Constraint12_1_0: b(1) >= 15.9833333333333
 Constraint11_1_1: b(1) <= 15.9833333333333
 Constraint12_1_1: b(1) >= 15.9833333333333
 Constraint11_2_0: b(2) <= 10.25
 Constraint12_2_0: b(2) >= 10.25
 Constraint11_2_1: b(2) <= 10.25
 Constraint12_2_1: b(2) >= 10.25
 Constraint11_3_0: b(3) <= 11.45
 Constraint12_3_0: b(3) >= 11.45
 Constraint11_3_1: b(3) <= 11.45
 Constraint12_3_1: b(3) >= 11.45
 Constraint11_4_0: b(4) <= 16.6666666666667
 Constraint12_4_0: b(4) >= 16.6666666666667
 Constraint11_4_1: b(4) <= 16.6666666666667
 Constraint12_4_1: b(4) >= 16.6666666666667
 Constraint11_5_0: b(5) <= 9.35
 Constraint12_5_0: b(5) >= 9.35
 Constraint11_5_1: b(5) <= 9.35
 Constraint12_5_1: b(5) >= 9.35
 Constraint11_6_0: b(6) <= 12.9166666666667
 Constraint12_6_0: b(6) >= 12.9166666666667
 Constraint11_6_1: b(6) <= 12.9166666666667
 Constraint12_6_1: b(6) >= 12.9166666666667
 Constraint11_7_0: b(7) <= 16.6333333333333
 Constraint12_7_0: b(7) >= 16.6333333333333
 Constraint11_7_1: b(7) <= 16.6333333333333
 Constraint12_7_1: b(7) >= 16.6333333333333
 Constraint13_0:   x(0,1,0) + x(0,1,1) + w(0) <= 1
 Constraint13_1:   x(0,2,0) + x(0,2,1) + w(0) <= 1
 Constraint13_2:   x(0,3,0) + x(0,3,1) + w(0) <= 1
 Constraint13_3:   x(0,4,0) + x(0,4,1) + w(0) <= 1
 Constraint13_4:   x(0,5,0) + x(0,5,1) + w(0) <= 1
 Constraint13_5:   x(0,6,0) + x(0,6,1) + w(0) <= 1
 Constraint13_6:   x(0,7,0) + x(0,7,1) + w(0) <= 1
 Constraint13_7:   x(1,0,0) + x(1,0,1) + w(1) <= 1
 Constraint13_8:   x(1,2,0) + x(1,2,1) + w(1) <= 1
 Constraint13_9:   x(1,3,0) + x(1,3,1) + w(1) <= 1
 Constraint13_10:  x(1,4,0) + x(1,4,1) + w(1) <= 1
 Constraint13_11:  x(1,5,0) + x(1,5,1) + w(1) <= 1
 Constraint13_12:  x(1,6,0) + x(1,6,1) + w(1) <= 1
 Constraint13_13:  x(1,7,0) + x(1,7,1) + w(1) <= 1
 Constraint13_14:  x(2,0,0) + x(2,0,1) + w(2) <= 1
 Constraint13_15:  x(2,1,0) + x(2,1,1) + w(2) <= 1
 Constraint13_16:  x(2,3,0) + x(2,3,1) + w(2) <= 1
 Constraint13_17:  x(2,4,0) + x(2,4,1) + w(2) <= 1
 Constraint13_18:  x(2,5,0) + x(2,5,1) + w(2) <= 1
 Constraint13_19:  x(2,6,0) + x(2,6,1) + w(2) <= 1
 Constraint13_20:  x(2,7,0) + x(2,7,1) + w(2) <= 1
 Constraint13_21:  x(3,0,0) + x(3,0,1) + w(3) <= 1
 Constraint13_22:  x(3,1,0) + x(3,1,1) + w(3) <= 1
 Constraint13_23:  x(3,2,0) + x(3,2,1) + w(3) <= 1
 Constraint13_24:  x(3,4,0) + x(3,4,1) + w(3) <= 1
 Constraint13_25:  x(3,5,0) + x(3,5,1) + w(3) <= 1
 Constraint13_26:  x(3,6,0) + x(3,6,1) + w(3) <= 1
 Constraint13_27:  x(3,7,0) + x(3,7,1) + w(3) <= 1
 Constraint13_28:  x(4,0,0) + x(4,0,1) + w(4) <= 1
 Constraint13_29:  x(4,1,0) + x(4,1,1) + w(4) <= 1
 Constraint13_30:  x(4,2,0) + x(4,2,1) + w(4) <= 1
 Constraint13_31:  x(4,3,0) + x(4,3,1) + w(4) <= 1
 Constraint13_32:  x(4,5,0) + x(4,5,1) + w(4) <= 1
 Constraint13_33:  x(4,6,0) + x(4,6,1) + w(4) <= 1
 Constraint13_34:  x(4,7,0) + x(4,7,1) + w(4) <= 1
 Constraint13_35:  x(5,0,0) + x(5,0,1) + w(5) <= 1
 Constraint13_36:  x(5,1,0) + x(5,1,1) + w(5) <= 1
 Constraint13_37:  x(5,2,0) + x(5,2,1) + w(5) <= 1
 Constraint13_38:  x(5,3,0) + x(5,3,1) + w(5) <= 1
 Constraint13_39:  x(5,4,0) + x(5,4,1) + w(5) <= 1
 Constraint13_40:  x(5,6,0) + x(5,6,1) + w(5) <= 1
 Constraint13_41:  x(5,7,0) + x(5,7,1) + w(5) <= 1
 Constraint13_42:  x(6,0,0) + x(6,0,1) + w(6) <= 1
 Constraint13_43:  x(6,1,0) + x(6,1,1) + w(6) <= 1
 Constraint13_44:  x(6,2,0) + x(6,2,1) + w(6) <= 1
 Constraint13_45:  x(6,3,0) + x(6,3,1) + w(6) <= 1
 Constraint13_46:  x(6,4,0) + x(6,4,1) + w(6) <= 1
 Constraint13_47:  x(6,5,0) + x(6,5,1) + w(6) <= 1
 Constraint13_48:  x(6,7,0) + x(6,7,1) + w(6) <= 1
 Constraint13_49:  x(7,0,0) + x(7,0,1) + w(7) <= 1
 Constraint13_50:  x(7,1,0) + x(7,1,1) + w(7) <= 1
 Constraint13_51:  x(7,2,0) + x(7,2,1) + w(7) <= 1
 Constraint13_52:  x(7,3,0) + x(7,3,1) + w(7) <= 1
 Constraint13_53:  x(7,4,0) + x(7,4,1) + w(7) <= 1
 Constraint13_54:  x(7,5,0) + x(7,5,1) + w(7) <= 1
 Constraint13_55:  x(7,6,0) + x(7,6,1) + w(7) <= 1
Bounds
 0 <= x(0,1,0) <= 1
 0 <= x(0,1,1) <= 1
 0 <= x(0,2,0) <= 1
 0 <= x(0,2,1) <= 1
 0 <= x(0,3,0) <= 1
 0 <= x(0,3,1) <= 1
 0 <= x(0,4,0) <= 1
 0 <= x(0,4,1) <= 1
 0 <= x(0,5,0) <= 1
 0 <= x(0,5,1) <= 1
 0 <= x(0,6,0) <= 1
 0 <= x(0,6,1) <= 1
 0 <= x(0,7,0) <= 1
 0 <= x(0,7,1) <= 1
 0 <= x(0,10,0) <= 1
 0 <= x(0,10,1) <= 1
 0 <= x(1,0,0) <= 1
 0 <= x(1,0,1) <= 1
 0 <= x(1,2,0) <= 1
 0 <= x(1,2,1) <= 1
 0 <= x(1,3,0) <= 1
 0 <= x(1,3,1) <= 1
 0 <= x(1,4,0) <= 1
 0 <= x(1,4,1) <= 1
 0 <= x(1,5,0) <= 1
 0 <= x(1,5,1) <= 1
 0 <= x(1,6,0) <= 1
 0 <= x(1,6,1) <= 1
 0 <= x(1,7,0) <= 1
 0 <= x(1,7,1) <= 1
 0 <= x(1,10,0) <= 1
 0 <= x(1,10,1) <= 1
 0 <= x(2,0,0) <= 1
 0 <= x(2,0,1) <= 1
 0 <= x(2,1,0) <= 1
 0 <= x(2,1,1) <= 1
 0 <= x(2,3,0) <= 1
 0 <= x(2,3,1) <= 1
 0 <= x(2,4,0) <= 1
 0 <= x(2,4,1) <= 1
 0 <= x(2,5,0) <= 1
 0 <= x(2,5,1) <= 1
 0 <= x(2,6,0) <= 1
 0 <= x(2,6,1) <= 1
 0 <= x(2,7,0) <= 1
 0 <= x(2,7,1) <= 1
 0 <= x(2,10,0) <= 1
 0 <= x(2,10,1) <= 1
 0 <= x(3,0,0) <= 1
 0 <= x(3,0,1) <= 1
 0 <= x(3,1,0) <= 1
 0 <= x(3,1,1) <= 1
 0 <= x(3,2,0) <= 1
 0 <= x(3,2,1) <= 1
 0 <= x(3,4,0) <= 1
 0 <= x(3,4,1) <= 1
 0 <= x(3,5,0) <= 1
 0 <= x(3,5,1) <= 1
 0 <= x(3,6,0) <= 1
 0 <= x(3,6,1) <= 1
 0 <= x(3,7,0) <= 1
 0 <= x(3,7,1) <= 1
 0 <= x(3,10,0) <= 1
 0 <= x(3,10,1) <= 1
 0 <= x(4,0,0) <= 1
 0 <= x(4,0,1) <= 1
 0 <= x(4,1,0) <= 1
 0 <= x(4,1,1) <= 1
 0 <= x(4,2,0) <= 1
 0 <= x(4,2,1) <= 1
 0 <= x(4,3,0) <= 1
 0 <= x(4,3,1) <= 1
 0 <= x(4,5,0) <= 1
 0 <= x(4,5,1) <= 1
 0 <= x(4,6,0) <= 1
 0 <= x(4,6,1) <= 1
 0 <= x(4,7,0) <= 1
 0 <= x(4,7,1) <= 1
 0 <= x(4,10,0) <= 1
 0 <= x(4,10,1) <= 1
 0 <= x(5,0,0) <= 1
 0 <= x(5,0,1) <= 1
 0 <= x(5,1,0) <= 1
 0 <= x(5,1,1) <= 1
 0 <= x(5,2,0) <= 1
 0 <= x(5,2,1) <= 1
 0 <= x(5,3,0) <= 1
 0 <= x(5,3,1) <= 1
 0 <= x(5,4,0) <= 1
 0 <= x(5,4,1) <= 1
 0 <= x(5,6,0) <= 1
 0 <= x(5,6,1) <= 1
 0 <= x(5,7,0) <= 1
 0 <= x(5,7,1) <= 1
 0 <= x(5,10,0) <= 1
 0 <= x(5,10,1) <= 1
 0 <= x(6,0,0) <= 1
 0 <= x(6,0,1) <= 1
 0 <= x(6,1,0) <= 1
 0 <= x(6,1,1) <= 1
 0 <= x(6,2,0) <= 1
 0 <= x(6,2,1) <= 1
 0 <= x(6,3,0) <= 1
 0 <= x(6,3,1) <= 1
 0 <= x(6,4,0) <= 1
 0 <= x(6,4,1) <= 1
 0 <= x(6,5,0) <= 1
 0 <= x(6,5,1) <= 1
 0 <= x(6,7,0) <= 1
 0 <= x(6,7,1) <= 1
 0 <= x(6,10,0) <= 1
 0 <= x(6,10,1) <= 1
 0 <= x(7,0,0) <= 1
 0 <= x(7,0,1) <= 1
 0 <= x(7,1,0) <= 1
 0 <= x(7,1,1) <= 1
 0 <= x(7,2,0) <= 1
 0 <= x(7,2,1) <= 1
 0 <= x(7,3,0) <= 1
 0 <= x(7,3,1) <= 1
 0 <= x(7,4,0) <= 1
 0 <= x(7,4,1) <= 1
 0 <= x(7,5,0) <= 1
 0 <= x(7,5,1) <= 1
 0 <= x(7,6,0) <= 1
 0 <= x(7,6,1) <= 1
 0 <= x(7,10,0) <= 1
 0 <= x(7,10,1) <= 1
 0 <= x(8,0,0) <= 1
 0 <= x(8,0,1) <= 1
 0 <= x(8,1,0) <= 1
 0 <= x(8,1,1) <= 1
 0 <= x(8,2,0) <= 1
 0 <= x(8,2,1) <= 1
 0 <= x(8,3,0) <= 1
 0 <= x(8,3,1) <= 1
 0 <= x(8,4,0) <= 1
 0 <= x(8,4,1) <= 1
 0 <= x(8,5,0) <= 1
 0 <= x(8,5,1) <= 1
 0 <= x(8,6,0) <= 1
 0 <= x(8,6,1) <= 1
 0 <= x(8,7,0) <= 1
 0 <= x(8,7,1) <= 1
 0 <= x(9,0,0) <= 1
 0 <= x(9,0,1) <= 1
 0 <= x(9,1,0) <= 1
 0 <= x(9,1,1) <= 1
 0 <= x(9,2,0) <= 1
 0 <= x(9,2,1) <= 1
 0 <= x(9,3,0) <= 1
 0 <= x(9,3,1) <= 1
 0 <= x(9,4,0) <= 1
 0 <= x(9,4,1) <= 1
 0 <= x(9,5,0) <= 1
 0 <= x(9,5,1) <= 1
 0 <= x(9,6,0) <= 1
 0 <= x(9,6,1) <= 1
 0 <= x(9,7,0) <= 1
 0 <= x(9,7,1) <= 1
 0 <= y(0,0) <= 1
 0 <= y(0,1) <= 1
 0 <= y(1,0) <= 1
 0 <= y(1,1) <= 1
 0 <= y(2,0) <= 1
 0 <= y(2,1) <= 1
 0 <= y(3,0) <= 1
 0 <= y(3,1) <= 1
 0 <= y(4,0) <= 1
 0 <= y(4,1) <= 1
 0 <= y(5,0) <= 1
 0 <= y(5,1) <= 1
 0 <= y(6,0) <= 1
 0 <= y(6,1) <= 1
 0 <= y(7,0) <= 1
 0 <= y(7,1) <= 1
 0 <= y(8,0) <= 1
 0 <= y(8,1) <= 1
 0 <= y(9,0) <= 1
 0 <= y(9,1) <= 1
 0 <= y(10,0) <= 1
 0 <= y(10,1) <= 1
 0 <= b(0) <= 24
 0 <= b(1) <= 24
 0 <= b(2) <= 24
 0 <= b(3) <= 24
 0 <= b(4) <= 24
 0 <= b(5) <= 24
 0 <= b(6) <= 24
 0 <= b(7) <= 24
 0 <= b(8) <= 24
 0 <= b(9) <= 24
 0 <= b(10) <= 24
 0 <= w(0) <= 1
 0 <= w(1) <= 1
 0 <= w(2) <= 1
 0 <= w(3) <= 1
 0 <= w(4) <= 1
 0 <= w(5) <= 1
 0 <= w(6) <= 1
 0 <= w(7) <= 1
 0 <= w(8) <= 1
 0 <= w(9) <= 1
 0 <= w(10) <= 1
      id1603 = 0
Binaries
 x(0,1,0)  x(0,1,1)  x(0,2,0)  x(0,2,1)  x(0,3,0)  x(0,3,1)  x(0,4,0) 
 x(0,4,1)  x(0,5,0)  x(0,5,1)  x(0,6,0)  x(0,6,1)  x(0,7,0)  x(0,7,1) 
 x(0,10,0)  x(0,10,1)  x(1,0,0)  x(1,0,1)  x(1,2,0)  x(1,2,1)  x(1,3,0) 
 x(1,3,1)  x(1,4,0)  x(1,4,1)  x(1,5,0)  x(1,5,1)  x(1,6,0)  x(1,6,1) 
 x(1,7,0)  x(1,7,1)  x(1,10,0)  x(1,10,1)  x(2,0,0)  x(2,0,1)  x(2,1,0) 
 x(2,1,1)  x(2,3,0)  x(2,3,1)  x(2,4,0)  x(2,4,1)  x(2,5,0)  x(2,5,1) 
 x(2,6,0)  x(2,6,1)  x(2,7,0)  x(2,7,1)  x(2,10,0)  x(2,10,1)  x(3,0,0) 
 x(3,0,1)  x(3,1,0)  x(3,1,1)  x(3,2,0)  x(3,2,1)  x(3,4,0)  x(3,4,1) 
 x(3,5,0)  x(3,5,1)  x(3,6,0)  x(3,6,1)  x(3,7,0)  x(3,7,1)  x(3,10,0) 
 x(3,10,1)  x(4,0,0)  x(4,0,1)  x(4,1,0)  x(4,1,1)  x(4,2,0)  x(4,2,1) 
 x(4,3,0)  x(4,3,1)  x(4,5,0)  x(4,5,1)  x(4,6,0)  x(4,6,1)  x(4,7,0) 
 x(4,7,1)  x(4,10,0)  x(4,10,1)  x(5,0,0)  x(5,0,1)  x(5,1,0)  x(5,1,1) 
 x(5,2,0)  x(5,2,1)  x(5,3,0)  x(5,3,1)  x(5,4,0)  x(5,4,1)  x(5,6,0) 
 x(5,6,1)  x(5,7,0)  x(5,7,1)  x(5,10,0)  x(5,10,1)  x(6,0,0)  x(6,0,1) 
 x(6,1,0)  x(6,1,1)  x(6,2,0)  x(6,2,1)  x(6,3,0)  x(6,3,1)  x(6,4,0) 
 x(6,4,1)  x(6,5,0)  x(6,5,1)  x(6,7,0)  x(6,7,1)  x(6,10,0)  x(6,10,1) 
 x(7,0,0)  x(7,0,1)  x(7,1,0)  x(7,1,1)  x(7,2,0)  x(7,2,1)  x(7,3,0) 
 x(7,3,1)  x(7,4,0)  x(7,4,1)  x(7,5,0)  x(7,5,1)  x(7,6,0)  x(7,6,1) 
 x(7,10,0)  x(7,10,1)  x(8,0,0)  x(8,0,1)  x(8,1,0)  x(8,1,1)  x(8,2,0) 
 x(8,2,1)  x(8,3,0)  x(8,3,1)  x(8,4,0)  x(8,4,1)  x(8,5,0)  x(8,5,1) 
 x(8,6,0)  x(8,6,1)  x(8,7,0)  x(8,7,1)  x(9,0,0)  x(9,0,1)  x(9,1,0) 
 x(9,1,1)  x(9,2,0)  x(9,2,1)  x(9,3,0)  x(9,3,1)  x(9,4,0)  x(9,4,1) 
 x(9,5,0)  x(9,5,1)  x(9,6,0)  x(9,6,1)  x(9,7,0)  x(9,7,1)  y(0,0)  y(0,1) 
 y(1,0)  y(1,1)  y(2,0)  y(2,1)  y(3,0)  y(3,1)  y(4,0)  y(4,1)  y(5,0) 
 y(5,1)  y(6,0)  y(6,1)  y(7,0)  y(7,1)  y(8,0)  y(8,1)  y(9,0)  y(9,1) 
 y(10,0)  y(10,1) 
End
